(set-option :print-success false)
(set-logic QF_UF)
(declare-sort x147 0)
(declare-sort x140 0)
(declare-fun x98 (x140 x140) x140)
(declare-fun x116 (x140 x140) x140)
(declare-fun x158 () x140)
(declare-fun x139 () x140)
(declare-fun x23 () x140)
(declare-fun x152 () x140)
(declare-fun x73 () x140)
(assert (let ((x78 (x98 x139 x139)) (x145 (x98 x23 x139)) (x146 (x98 x23 x152)) (x41 (x98 x158 x139)) (x157 (x98 x158 x158)) (x92 (x98 x73 x23)) (x35 (x98 x152 x158)) (x131 (x98 x139 x23)) (x114 (x98 x152 x23)) (x17 (x98 x73 x158)) (x37 (x98 x152 x73)) (x111 (x98 x139 x73)) (x9 (x98 x73 x152)) (x115 (x98 x152 x152)) (x130 (x98 x73 x73)) (x34 (x98 x23 x73)) (x113 (x98 x158 x152)) (x4 (x98 x139 x152)) (x10 (x98 x23 x23)) (x150 (x98 x152 x139)) (x31 (x98 x158 x23)) (x156 (x98 x139 x158)) (x1 (x98 x73 x139)) (x122 (x98 x158 x73)) (x5 (x98 x23 x158))) (let ((x56 (not (= x158 x35))) (x42 (not (= x158 x131))) (x94 (not (= x17 x73))) (x66 (not (= x139 x4))) (x29 (not (= x156 x139))) (x22 (not (= x152 x9))) (x32 (not (= x156 x158))) (x81 (not (= x158 x92))) (x39 (not (= x146 x158))) (x82 (not (= x31 x23))) (x61 (not (= x78 x139))) (x142 (not (= x152 x130))) (x57 (not (= x9 x23))) (x69 (not (= x139 x122))) (x19 (not (= x9 x158))) (x51 (not (= x114 x139))) (x72 (not (= x139 x5))) (x148 (not (= x37 x158))) (x67 (not (= x4 x152))) (x153 (not (= x139 x157))) (x18 (not (= x152 x122))) (x13 (not (= x152 x146))) (x77 (not (= x113 x23))) (x3 (not (= x78 x23))) (x46 (not (= x92 x73))) (x63 (not (= x145 x158))) (x144 (not (= x139 x10))) (x33 (not (= x35 x152))) (x44 (not (= x115 x152))) (x70 (not (= x146 x23))) (x88 (not (= x157 x73))) (x75 (not (= x4 x158))) (x52 (not (= x157 x158))) (x107 (not (= x158 x17))) (x38 (not (= x145 x152))) (x126 (not (= x152 x111))) (x86 (not (= x152 x37))) (x128 (not (= x139 x146))) (x100 (not (= x157 x152))) (x64 (not (= x78 x73))) (x62 (not (= x156 x152))) (x89 (not (= x157 x23))) (x106 (not (= x158 x31))) (x133 (not (= x31 x152))) (x105 (not (= x23 x1))) (x40 (not (= x5 x73))) (x12 (not (= x115 x158))) (x102 (not (= x23 x111))) (x96 (not (= x1 x139))) (x159 (not (= x130 x139))) (x76 (not (= x152 x41))) (x136 (not (= x34 x23))) (x84 (not (= x122 x73))) (x43 (not (= x4 x23))) (x93 (not (= x158 x130))) (x85 (not (= x34 x152))) (x151 (not (= x113 x73))) (x91 (not (= x152 x10))) (x58 (not (= x145 x139))) (x141 (not (= x152 x150))) (x154 (not (= x139 x17))) (x127 (not (= x139 x131))) (x124 (not (= x23 x150))) (x16 (not (= x73 x156))) (x30 (not (= x152 x17))) (x47 (not (= x150 x139))) (x109 (not (= x158 x1))) (x49 (not (= x31 x73))) (x112 (not (= x158 x10))) (x143 (not (= x152 x78))) (x74 (not (= x73 x111))) (x95 (not (= x23 x115))) (x137 (not (= x73 x4))) (x134 (not (= x150 x73))) (x118 (not (= x145 x73))) (x103 (not (= x73 x130))) (x24 (not (= x73 x41))) (x71 (not (= x23 x130))) (x14 (not (= x113 x158))) (x129 (not (= x23 x92))) (x155 (not (= x5 x23))) (x36 (not (= x23 x114))) (x117 (not (= x1 x73))) (x97 (not (= x92 x152))) (x59 (not (= x73 x35))) (x53 (not (= x17 x23))) (x6 (not (= x139 x37))) (x50 (not (= x131 x23))) (x79 (not (= x37 x73))) (x55 (not (= x139 x115))) (x80 (not (= x23 x41))) (x121 (not (= x139 x111))) (x123 (not (= x158 x122))) (x99 (not (= x113 x152))) (x104 (not (= x152 x1))) (x7 (not (= x113 x139))) (x135 (not (= x31 x139))) (x120 (not (= x10 x23))) (x11 (not (= x73 x9))) (x60 (not (= x114 x158))) (x90 (not (= x92 x139))) (x21 (not (= x152 x114))) (x149 (not (= x35 x139))) (x28 (not (= x152 x5))) (x45 (not (= x146 x73))) (x25 (not (= x122 x23))) (x132 (not (= x158 x5))) (x108 (not (= x158 x34))) (x20 (not (= x23 x145))) (x119 (not (= x73 x115))) (x87 (not (= x139 x9))) (x8 (not (= x131 x73))) (x48 (not (= x158 x111))) (x101 (not (= x139 x41))) (x15 (not (= x131 x152))) (x27 (not (= x158 x41))) (x54 (not (= x37 x23))) (x65 (not (= x139 x34))) (x138 (not (= x158 x150))) (x83 (not (= x158 x78))) (x110 (not (= x73 x10))) (x68 (not (= x34 x73))) (x125 (not (= x23 x35))) (x2 (not (= x114 x73))) (x26 (not (= x23 x156)))) (or (and (and (and (or x46 x68) (and (or x11 x79) (and (or x94 x84) (or x74 x117)))) (or x103 x103)) (and (and (and (and (or x2 x45) (and (and (or x59 x151) (or x134 x137)) (or x119 x119))) (or x11 x79)) (and (and (or x94 x84) (and (and (and (or x88 x88) (or x24 x16)) (or x59 x151)) (or x40 x49))) (and (or x74 x117) (and (or x8 x118) (and (and (or x16 x24) (or x64 x64)) (or x137 x134)))))) (and (or x46 x68) (and (or x110 x110) (and (and (or x8 x118) (or x49 x40)) (or x45 x2)))))) (or (or (or (and (and (and (or x108 x81) (and (and (or x39 x60) (and (or x63 x42) (or x106 x132))) (or x112 x112))) (and (and (and (or x123 x107) (and (and (and (or x52 x52) (or x32 x27)) (or x56 x14)) (or x132 x106))) (and (and (and (or x138 x75) (and (or x83 x83) (or x27 x32))) (or x42 x63)) (or x109 x48))) (and (and (or x39 x60) (and (and (or x138 x75) (or x56 x14)) (or x12 x12))) (or x148 x19)))) (and (or x93 x93) (and (and (or x148 x19) (and (or x107 x123) (or x109 x48))) (or x108 x81)))) (and (and (and (and (and (and (or x72 x135) (and (and (or x153 x153) (or x29 x101)) (or x7 x149))) (or x69 x154)) (and (and (and (and (or x61 x61) (or x101 x29)) (or x47 x66)) (or x127 x58)) (or x96 x121))) (and (or x87 x6) (and (and (or x55 x55) (and (or x149 x7) (or x47 x66))) (or x128 x51)))) (and (or x65 x90) (and (and (or x128 x51) (and (or x127 x58) (or x72 x135))) (or x144 x144)))) (and (or x159 x159) (and (and (or x87 x6) (and (or x96 x121) (or x154 x69))) (or x65 x90))))) (and (and (and (or x97 x85) (and (or x86 x22) (and (or x18 x30) (or x104 x126)))) (or x142 x142)) (and (and (and (or x86 x22) (and (and (and (or x67 x141) (or x33 x99)) (or x44 x44)) (or x21 x13))) (and (and (or x30 x18) (and (and (or x99 x33) (and (or x62 x76) (or x100 x100))) (or x133 x28))) (and (or x126 x104) (and (or x15 x38) (and (and (or x143 x143) (or x62 x76)) (or x67 x141)))))) (and (or x97 x85) (and (and (and (or x133 x28) (or x15 x38)) (or x13 x21)) (or x91 x91)))))) (and (and (and (or x129 x136) (and (or x120 x120) (and (or x36 x70) (and (or x50 x20) (or x82 x155))))) (and (and (and (and (or x20 x50) (and (and (or x26 x80) (or x3 x3)) (or x43 x124))) (or x102 x105)) (and (and (or x155 x82) (and (and (or x80 x26) (or x89 x89)) (or x125 x77))) (or x53 x25))) (and (or x57 x54) (and (or x70 x36) (and (or x95 x95) (and (or x77 x125) (or x124 x43))))))) (and (and (and (or x54 x57) (and (or x102 x105) (or x25 x53))) (or x136 x129)) (or x71 x71))))))))
(assert (and (and (= x23 (x98 x158 x139)) (and (= x152 (x98 x139 x23)) (= x139 (x98 x158 x158)))) (= (x98 x23 x23) x73)))
(assert (or (and (= x73 (x98 x73 (x98 x73 x73))) (and (= (x98 x73 (x98 x73 x23)) x23) (and (and (= (x98 x73 (x98 x73 x139)) x139) (= (x98 x73 (x98 x73 x158)) x158)) (= x152 (x98 x73 (x98 x73 x152)))))) (or (and (and (= (x98 x23 (x98 x23 x23)) x23) (and (= x152 (x98 x23 (x98 x23 x152))) (and (= x158 (x98 x23 (x98 x23 x158))) (= x139 (x98 x23 (x98 x23 x139)))))) (= (x98 x23 (x98 x23 x73)) x73)) (or (or (and (and (= x23 (x98 x158 (x98 x158 x23))) (and (= x152 (x98 x158 (x98 x158 x152))) (and (= (x98 x158 (x98 x158 x158)) x158) (= x139 (x98 x158 (x98 x158 x139)))))) (= x73 (x98 x158 (x98 x158 x73)))) (and (= (x98 x139 (x98 x139 x73)) x73) (and (= (x98 x139 (x98 x139 x23)) x23) (and (and (= (x98 x139 (x98 x139 x158)) x158) (= (x98 x139 (x98 x139 x139)) x139)) (= (x98 x139 (x98 x139 x152)) x152))))) (and (and (and (and (= x139 (x98 x152 (x98 x152 x139))) (= (x98 x152 (x98 x152 x158)) x158)) (= x152 (x98 x152 (x98 x152 x152)))) (= x23 (x98 x152 (x98 x152 x23)))) (= x73 (x98 x152 (x98 x152 x73))))))))
(assert (or (= (x98 x73 x73) x73) (or (= (x98 x23 x23) x23) (or (= (x98 x152 x152) x152) (or (= x139 (x98 x139 x139)) (= (x98 x158 x158) x158))))))
(assert (and (and (not (= x73 x152)) (and (and (not (= x73 x139)) (and (and (and (and (not (= x158 x23)) (and (not (= x152 x158)) (not (= x139 x158)))) (not (= x158 x73))) (not (= x152 x139))) (not (= x139 x23)))) (not (= x152 x23)))) (not (= x23 x73))))
(assert (let ((x138 (x98 x139 x139)) (x60 (x98 x73 x152)) (x42 (x98 x152 x152)) (x63 (x98 x139 x152)) (x107 (x98 x139 x23)) (x83 (x98 x23 x158)) (x148 (x98 x139 x73)) (x106 (x98 x158 x152)) (x75 (x98 x152 x139)) (x12 (x98 x23 x139)) (x109 (x98 x23 x23)) (x27 (x98 x152 x158)) (x108 (x98 x23 x73)) (x93 (x98 x73 x73)) (x56 (x98 x73 x158)) (x112 (x98 x158 x23)) (x19 (x98 x158 x73)) (x39 (x98 x23 x152)) (x81 (x98 x152 x73)) (x32 (x98 x139 x158)) (x123 (x98 x152 x23)) (x132 (x98 x73 x139)) (x14 (x98 x158 x139)) (x48 (x98 x73 x23)) (x52 (x98 x158 x158))) (and (and (and (and (and (and (and (and (not (= x12 x109)) (and (and (and (and (not (= x39 x83)) (not (= x83 x12))) (not (= x83 x109))) (not (= x108 x83))) (not (= x12 x39)))) (not (= x12 x108))) (not (= x109 x39))) (not (= x108 x39))) (not (= x108 x109))) (and (and (and (and (not (= x148 x63)) (and (not (= x107 x63)) (and (and (not (= x107 x138)) (and (not (= x63 x138)) (and (not (= x32 x148)) (and (not (= x107 x32)) (and (not (= x138 x32)) (not (= x63 x32))))))) (not (= x138 x148))))) (not (= x107 x148))) (and (not (= x19 x112)) (and (not (= x19 x106)) (and (not (= x106 x112)) (and (and (and (not (= x106 x14)) (and (not (= x52 x19)) (and (not (= x112 x52)) (and (not (= x106 x52)) (not (= x14 x52)))))) (not (= x112 x14))) (not (= x19 x14))))))) (and (not (= x123 x81)) (and (and (not (= x123 x42)) (and (not (= x81 x75)) (and (and (and (and (not (= x27 x123)) (and (not (= x27 x42)) (not (= x75 x27)))) (not (= x27 x81))) (not (= x42 x75))) (not (= x75 x123))))) (not (= x42 x81)))))) (and (not (= x48 x93)) (and (not (= x93 x60)) (and (not (= x60 x48)) (and (and (not (= x132 x48)) (and (not (= x132 x60)) (and (not (= x93 x56)) (and (not (= x56 x48)) (and (not (= x56 x132)) (not (= x60 x56))))))) (not (= x132 x93))))))) (and (and (and (not (= x48 x109)) (and (and (and (and (not (= x107 x109)) (and (and (not (= x112 x48)) (and (and (not (= x123 x112)) (not (= x112 x107))) (not (= x109 x112)))) (not (= x107 x123)))) (not (= x107 x48))) (not (= x109 x123))) (not (= x48 x123)))) (and (and (and (not (= x12 x132)) (and (not (= x75 x132)) (and (and (and (not (= x12 x138)) (and (and (not (= x14 x132)) (and (not (= x12 x14)) (and (not (= x75 x14)) (not (= x14 x138))))) (not (= x138 x75)))) (not (= x132 x138))) (not (= x75 x12))))) (and (not (= x83 x56)) (and (and (not (= x27 x83)) (and (not (= x56 x32)) (and (and (and (not (= x52 x56)) (and (not (= x83 x52)) (and (not (= x52 x32)) (not (= x52 x27))))) (not (= x32 x27))) (not (= x32 x83))))) (not (= x56 x27))))) (and (and (and (and (not (= x63 x60)) (and (not (= x39 x63)) (and (and (and (and (not (= x106 x42)) (not (= x63 x106))) (not (= x106 x39))) (not (= x60 x106))) (not (= x63 x42))))) (not (= x42 x39))) (not (= x42 x60))) (not (= x60 x39))))) (and (and (not (= x93 x81)) (and (and (and (and (and (not (= x19 x93)) (and (and (not (= x19 x81)) (not (= x19 x148))) (not (= x19 x108)))) (not (= x148 x81))) (not (= x148 x108))) (not (= x93 x148))) (not (= x81 x108)))) (not (= x108 x93)))))))
(assert (not (and (= (x98 x73 x73) x158) (and (and (and (and (and (= (x98 x23 x73) x139) (and (and (= (x98 x23 x152) x158) (and (= (x98 x23 x139) x152) (and (= x23 (x98 x23 x158)) (and (and (= x23 (x98 x152 x23)) (and (= x152 (x98 x152 x152)) (and (and (and (= (x98 x139 x73) x23) (and (and (= x139 (x98 x139 x152)) (and (and (= (x98 x139 x158) x73) (and (and (= (x98 x158 x23) x158) (and (= (x98 x158 x152) x73) (and (= (x98 x158 x158) x139) (= (x98 x158 x139) x23)))) (= x152 (x98 x158 x73)))) (= x158 (x98 x139 x139)))) (= (x98 x139 x23) x152))) (= x158 (x98 x152 x158))) (= x139 (x98 x152 x139))))) (= (x98 x152 x73) x73))))) (= x73 (x98 x23 x23)))) (= (x98 x73 x158) x152)) (= (x98 x73 x139) x73)) (= x23 (x98 x73 x152))) (= x139 (x98 x73 x23))))))
(assert (let ((x52 (= (x98 x158 x158) x158)) (x32 (= (x98 x139 x139) x139)) (x83 (= x23 (x98 x23 x23))) (x56 (= (x98 x73 x73) x73)) (x27 (= (x98 x152 x152) x152))) (and (and (or (not x56) x56) (and (or x56 (not (= x23 (x98 x73 x23)))) (and (and (or (not (= (x98 x73 x139) x139)) x56) (or x56 (not (= x158 (x98 x73 x158))))) (or x56 (not (= x152 (x98 x73 x152))))))) (and (and (and (and (and (or x27 (not x27)) (and (or (not (= x139 (x98 x152 x139))) x27) (or (not (= (x98 x152 x158) x158)) x27))) (or (not (= (x98 x152 x23) x23)) x27)) (or (not (= (x98 x152 x73) x73)) x27)) (and (and (and (and (or x52 (not (= (x98 x158 x152) x152))) (and (or (not x52) x52) (or x52 (not (= (x98 x158 x139) x139))))) (or (not (= x23 (x98 x158 x23))) x52)) (or (not (= (x98 x158 x73) x73)) x52)) (and (or x32 (not (= (x98 x139 x73) x73))) (and (and (or x32 (not (= x152 (x98 x139 x152)))) (and (or (not (= (x98 x139 x158) x158)) x32) (or x32 (not x32)))) (or x32 (not (= x23 (x98 x139 x23)))))))) (and (and (or x83 (not x83)) (and (or (not (= (x98 x23 x152) x152)) x83) (and (or x83 (not (= (x98 x23 x158) x158))) (or x83 (not (= (x98 x23 x139) x139)))))) (or x83 (not (= x73 (x98 x23 x73)))))))))
(assert (or (and (not (= x73 (x98 x73 (x98 x73 x73)))) (and (not (= (x98 x73 (x98 x73 x23)) x23)) (and (and (not (= (x98 x73 (x98 x73 x139)) x139)) (not (= (x98 x73 (x98 x73 x158)) x158))) (not (= x152 (x98 x73 (x98 x73 x152))))))) (or (and (and (and (and (not (= x139 (x98 x23 (x98 x23 x139)))) (not (= x158 (x98 x23 (x98 x23 x158))))) (not (= (x98 x23 (x98 x23 x152)) x152))) (not (= (x98 x23 (x98 x23 x23)) x23))) (not (= x73 (x98 x23 (x98 x23 x73))))) (or (and (not (= (x98 x152 (x98 x152 x73)) x73)) (and (and (not (= x152 (x98 x152 (x98 x152 x152)))) (and (not (= (x98 x152 (x98 x152 x158)) x158)) (not (= (x98 x152 (x98 x152 x139)) x139)))) (not (= (x98 x152 (x98 x152 x23)) x23)))) (or (and (and (and (and (not (= x139 (x98 x139 (x98 x139 x139)))) (not (= (x98 x139 (x98 x139 x158)) x158))) (not (= x152 (x98 x139 (x98 x139 x152))))) (not (= (x98 x139 (x98 x139 x23)) x23))) (not (= x73 (x98 x139 (x98 x139 x73))))) (and (not (= x73 (x98 x158 (x98 x158 x73)))) (and (and (and (not (= (x98 x158 (x98 x158 x158)) x158)) (not (= x139 (x98 x158 (x98 x158 x139))))) (not (= x152 (x98 x158 (x98 x158 x152))))) (not (= x23 (x98 x158 (x98 x158 x23)))))))))))
(assert (let ((x56 (x98 x73 x73)) (x32 (x98 x139 x139)) (x52 (x98 x158 x158)) (x83 (x98 x23 x23)) (x27 (x98 x152 x152))) (let ((x132 (not (= (x98 x152 x27) x152))) (x138 (= x52 x158)) (x106 (= x152 x27)) (x75 (not (= (x98 x139 x32) x139))) (x42 (= x23 x83)) (x14 (not (= (x98 x158 x52) x158))) (x39 (not (= (x98 x73 x56) x73))) (x12 (= x32 x139)) (x60 (= x73 x56)) (x63 (not (= x23 (x98 x23 x83))))) (and (and (and (and (and (or x14 (or (or (or (or x138 (= (x98 x139 x158) x139)) (= (x98 x152 x158) x152)) (= x23 (x98 x23 x158))) (= x73 (x98 x73 x158)))) (or (or (= x73 (x98 x73 x139)) (or (or (= (x98 x152 x139) x152) (or x12 (= (x98 x158 x139) x158))) (= (x98 x23 x139) x23))) x75)) (or x132 (or (= x73 (x98 x73 x152)) (or (= (x98 x23 x152) x23) (or x106 (or (= x158 (x98 x158 x152)) (= (x98 x139 x152) x139))))))) (or (or (or (or (= (x98 x152 x23) x152) (or (= x139 (x98 x139 x23)) (= (x98 x158 x23) x158))) x42) (= x73 (x98 x73 x23))) x63)) (or (or x60 (or (= x23 (x98 x23 x73)) (or (or (= x158 (x98 x158 x73)) (= x139 (x98 x139 x73))) (= (x98 x152 x73) x152)))) x39)) (and (or x39 (or x60 (or (= x83 x73) (or (= x27 x73) (or (= x73 x32) (= x73 x52)))))) (and (and (or (or (= x152 x56) (or (= x83 x152) (or x106 (or (= x32 x152) (= x152 x52))))) x132) (and (or (or (= x158 x56) (or (or (or (= x32 x158) x138) (= x27 x158)) (= x158 x83))) x14) (or (or (= x139 x56) (or (or (or (= x52 x139) x12) (= x139 x27)) (= x83 x139))) x75))) (or x63 (or (or x42 (or (= x27 x23) (or (= x23 x52) (= x32 x23)))) (= x56 x23)))))))))
(assert (let ((x108 (x98 x152 x73)) (x83 (x98 x158 x139)) (x93 (x98 x23 x73)) (x156 (x98 x73 x23)) (x112 (x98 x152 x23)) (x12 (x98 x139 x152)) (x63 (= (x98 x152 x152) x152)) (x27 (x98 x139 x158)) (x19 (x98 x73 x158)) (x81 (x98 x139 x73)) (x75 (x98 x158 x152)) (x60 (x98 x139 x23)) (x39 (x98 x158 x23)) (x107 (x98 x23 x139)) (x48 (= (x98 x23 x23) x23)) (x52 (= x158 (x98 x158 x158))) (x109 (x98 x23 x152)) (x148 (x98 x158 x73)) (x157 (x98 x73 x139)) (x138 (x98 x152 x158)) (x41 (x98 x73 x152)) (x56 (= (x98 x139 x139) x139)) (x132 (x98 x152 x139)) (x113 (= (x98 x73 x73) x73)) (x42 (x98 x23 x158))) (let ((x32 (or (= x73 x19) (or (= x23 x42) (or (= x138 x152) (or x52 (= x139 x27)))))) (x153 (or (or (= x93 x23) (or (= x108 x152) (or (= x139 x81) (= x158 x148)))) x113)) (x106 (or (= x73 x41) (or (= x23 x109) (or (or (= x139 x12) (= x158 x75)) x63)))) (x123 (or (or (or (or (= x139 x60) (= x158 x39)) (= x112 x152)) x48) (= x156 x73))) (x14 (or (= x73 x157) (or (or (= x152 x132) (or x56 (= x83 x158))) (= x23 x107))))) (and (and (and (and (and (or (not (= x158 x19)) x153) (or (not (= x139 x157)) x153)) (or x153 (not (= x41 x152)))) (or x153 (not (= x156 x23)))) (or x153 (not x113))) (and (and (and (and (and (and (or x106 (not (= x158 x138))) (or x106 (not (= x132 x139)))) (or x106 (not x63))) (or (not (= x112 x23)) x106)) (or x106 (not (= x73 x108)))) (and (and (or (not (= x81 x73)) x14) (and (and (or (not (= x12 x152)) x14) (and (or (not x56) x14) (or (not (= x27 x158)) x14))) (or x14 (not (= x60 x23))))) (and (or x32 (not (= x148 x73))) (and (or x32 (not (= x23 x39))) (and (or x32 (not (= x75 x152))) (and (or (not x52) x32) (or (not (= x83 x139)) x32))))))) (and (or (not (= x73 x93)) x123) (and (and (and (or (not (= x107 x139)) x123) (or (not (= x158 x42)) x123)) (or x123 (not (= x109 x152)))) (or x123 (not x48)))))))))
(assert (let ((x83 (x98 x23 x23)) (x56 (x98 x73 x73)) (x27 (x98 x152 x152)) (x32 (x98 x139 x139)) (x52 (x98 x158 x158))) (or (and (not (= x73 x56)) (and (not (= x83 x73)) (and (and (not (= x52 x73)) (not (= x73 x32))) (not (= x73 x27))))) (or (or (and (not (= x152 x56)) (and (and (and (not (= x152 x52)) (not (= x32 x152))) (not (= x152 x27))) (not (= x152 x83)))) (or (and (not (= x56 x139)) (and (and (not (= x27 x139)) (and (not (= x32 x139)) (not (= x139 x52)))) (not (= x83 x139)))) (and (and (and (not (= x158 x27)) (and (not (= x158 x52)) (not (= x32 x158)))) (not (= x83 x158))) (not (= x158 x56))))) (and (not (= x23 x56)) (and (not (= x83 x23)) (and (not (= x23 x27)) (and (not (= x52 x23)) (not (= x23 x32))))))))))
(assert (let ((x148 (x98 x139 x73)) (x153 (x98 x73 x139)) (x67 (x98 x73 x23)) (x25 (x98 x73 x73)) (x56 (x98 x158 x23)) (x14 (x98 x158 x73)) (x111 (x98 x152 x152)) (x12 (x98 x152 x158)) (x27 (x98 x158 x139)) (x48 (x98 x139 x152)) (x32 (x98 x158 x158)) (x19 (x98 x139 x23)) (x83 (x98 x158 x152)) (x132 (x98 x23 x158)) (x62 (x98 x23 x23)) (x76 (x98 x23 x73)) (x115 (x98 x23 x152)) (x55 (x98 x73 x152)) (x149 (x98 x152 x73)) (x75 (x98 x139 x158)) (x106 (x98 x73 x158)) (x157 (x98 x23 x139)) (x109 (x98 x139 x139)) (x1 (x98 x152 x23)) (x93 (x98 x152 x139))) (let ((x5 (= x23 x109)) (x80 (= x73 x1)) (x51 (= x23 x111)) (x17 (= x73 x27)) (x112 (= x27 x158)) (x94 (= x106 x73)) (x64 (= x148 x152)) (x4 (= x158 x48)) (x114 (= x12 x152)) (x96 (= x157 x158)) (x8 (= x148 x23)) (x129 (= x139 x25)) (x20 (= x158 x76)) (x59 (= x149 x152)) (x130 (= x132 x139)) (x128 (= x23 x48)) (x22 (= x23 x1)) (x40 (= x23 x55)) (x3 (= x73 x62)) (x151 (= x152 x76)) (x141 (= x139 x62)) (x66 (= x139 x111)) (x26 (= x73 x19)) (x45 (= x23 x149)) (x47 (= x48 x139)) (x99 (= x1 x139)) (x53 (= x139 x67)) (x102 (= x139 x148)) (x15 (= x19 x152)) (x108 (= x109 x139)) (x87 (= x56 x158)) (x82 (= x149 x158)) (x113 (= x152 x109)) (x126 (= x19 x23)) (x30 (= x157 x23)) (x118 (= x14 x23)) (x144 (= x93 x73)) (x121 (= x158 x115)) (x61 (= x83 x158)) (x120 (= x139 x55)) (x90 (= x1 x158)) (x54 (= x76 x139)) (x52 (= x158 x32)) (x36 (= x153 x139)) (x68 (= x76 x73)) (x105 (= x14 x139)) (x50 (= x158 x25)) (x101 (= x158 x12)) (x58 (= x23 x93)) (x84 (= x153 x73)) (x92 (= x48 x73)) (x57 (= x139 x149)) (x37 (= x152 x83)) (x154 (= x111 x73)) (x133 (= x152 x115)) (x21 (= x62 x152)) (x86 (= x23 x62)) (x60 (= x75 x158)) (x104 (= x23 x56)) (x13 (= x1 x152)) (x107 (= x109 x158)) (x124 (= x55 x158)) (x9 (= x48 x152)) (x70 (= x106 x139)) (x78 (= x93 x158)) (x156 (= x27 x152)) (x65 (= x158 x62)) (x28 (= x157 x152)) (x63 (= x32 x152)) (x79 (= x148 x73)) (x34 (= x83 x73)) (x110 (= x23 x25)) (x42 (= x23 x32)) (x38 (= x56 x152)) (x125 (= x158 x106)) (x91 (= x132 x23)) (x71 (= x152 x153)) (x43 (= x67 x158)) (x81 (= x139 x27)) (x6 (= x158 x19)) (x159 (= x157 x139)) (x18 (= x23 x115)) (x41 (= x152 x75)) (x44 (= x152 x132)) (x119 (= x153 x23)) (x142 (= x115 x73)) (x39 (= x73 x32)) (x77 (= x158 x153)) (x97 (= x73 x132)) (x16 (= x67 x152)) (x46 (= x73 x149)) (x137 (= x23 x106)) (x145 (= x139 x93)) (x24 (= x152 x14)) (x131 (= x12 x139)) (x150 (= x111 x158)) (x11 (= x14 x73)) (x7 (= x83 x139)) (x135 (= x12 x23)) (x138 (= x139 x32)) (x155 (= x148 x158)) (x127 (= x83 x23)) (x122 (= x73 x75)) (x95 (= x158 x14)) (x72 (= x111 x152)) (x85 (= x73 x157)) (x100 (= x139 x115)) (x143 (= x56 x139)) (x49 (= x67 x23)) (x103 (= x73 x25)) (x74 (= x73 x67)) (x134 (= x25 x152)) (x35 (= x23 x75)) (x136 (= x152 x106)) (x88 (= x152 x55)) (x2 (= x23 x76)) (x123 (= x139 x75)) (x146 (= x93 x152)) (x29 (= x109 x73)) (x117 (= x73 x55)) (x10 (= x12 x73)) (x69 (= x158 x132)) (x89 (= x56 x73)) (x33 (= x19 x139)) (x31 (= x27 x23))) (and (and (and (and (and (and (and (or (or (or x135 (or x35 x42)) x91) x137) (or (or (or x127 (or x31 x42)) x104) x118)) (and (and (or (or x38 (or (or x156 x63) x37)) x24) (or (or x44 (or (or x63 x41) x114)) x136)) (and (and (or x105 (or x143 (or (or x138 x81) x7))) (or (or (or (or x138 x123) x131) x130) x70)) (and (or (or x69 (or x101 (or x60 x52))) x125) (or (or x87 (or (or x112 x52) x61)) x95))))) (and (or (or (or x34 (or x39 x17)) x89) x11) (or (or x97 (or (or x122 x39) x10)) x94))) (and (and (or (or x26 (or x92 (or x29 x122))) x79) (or (or (or (or x17 x29) x144) x85) x84)) (and (and (and (or (or x28 (or (or x113 x156) x146)) x71) (or (or (or (or x113 x41) x9) x15) x64)) (and (and (or (or (or x78 (or x112 x107)) x96) x77) (or (or (or x4 (or x60 x107)) x6) x155)) (and (or x102 (or x33 (or x47 (or x108 x123)))) (or x36 (or (or x145 (or x108 x81)) x159))))) (and (or x8 (or x126 (or (or x35 x5) x128))) (or x119 (or (or (or x5 x31) x58) x30)))))) (and (and (or (or (or x154 (or x92 x34)) x142) x117) (or (or x80 (or (or x144 x10) x154)) x46)) (and (and (and (and (or (or x100 (or (or x7 x47) x66)) x120) (or (or (or x66 (or x131 x145)) x99) x57)) (and (or x124 (or (or (or x61 x4) x150) x121)) (or (or (or (or x78 x101) x150) x90) x82))) (and (or x59 (or (or (or x146 x114) x72) x13)) (or (or x133 (or (or x37 x9) x72)) x88))) (and (or (or (or (or x127 x128) x51) x18) x40) (or (or (or x51 (or x135 x58)) x22) x45))))) (and (and (or (or (or x142 (or x85 x97)) x3) x68) (or x74 (or x3 (or (or x89 x26) x80)))) (and (and (and (or x151 (or x21 (or x133 (or x28 x44)))) (or (or (or x13 (or x38 x15)) x21) x16)) (and (and (or x54 (or x141 (or (or x130 x159) x100))) (or (or x141 (or x99 (or x33 x143))) x53)) (and (or x20 (or x65 (or x121 (or x69 x96)))) (or x43 (or (or x90 (or x87 x6)) x65))))) (and (or (or (or x18 (or x30 x91)) x86) x2) (or x49 (or x86 (or x22 (or x104 x126)))))))) (and (and (or x103 (or (or (or x79 x11) x46) x68)) (or x103 (or x74 (or (or x94 x84) x117)))) (and (and (or (or (or (or x137 x119) x40) x49) x110) (or x110 (or x2 (or (or x118 x8) x45)))) (and (and (or x134 (or (or (or x64 x24) x59) x151)) (or (or (or (or x71 x136) x88) x16) x134)) (and (and (or x50 (or (or (or x95 x155) x82) x20)) (or x50 (or (or x124 (or x77 x125)) x43))) (and (or (or (or (or x102 x105) x57) x54) x129) (or (or x53 (or x120 (or x70 x36))) x129))))))))))
(assert (let ((x75 (x98 x158 x152)) (x4 (x98 x23 x73)) (x93 (x98 x139 x152)) (x101 (x98 x23 x139)) (x145 (x98 x73 x152)) (x78 (x98 x23 x152)) (x17 (x98 x152 x73)) (x19 (x98 x139 x158)) (x81 (x98 x139 x139)) (x122 (x98 x152 x23)) (x153 (x98 x139 x23)) (x29 (x98 x23 x158)) (x5 (x98 x152 x152)) (x1 (x98 x73 x73)) (x12 (x98 x158 x23)) (x150 (x98 x73 x158)) (x35 (x98 x152 x158)) (x111 (x98 x73 x23)) (x138 (x98 x158 x139)) (x31 (x98 x152 x139)) (x132 (x98 x158 x73)) (x131 (x98 x73 x139)) (x61 (x98 x23 x23)) (x156 (x98 x139 x73)) (x14 (x98 x158 x158))) (let ((x68 (= x111 x73)) (x25 (= x81 x73)) (x63 (= x158 x19)) (x126 (= x23 x5)) (x137 (= x152 x111)) (x88 (= x73 x35)) (x2 (= x78 x73)) (x43 (= x138 x73)) (x110 (= x145 x23)) (x79 (= x131 x73)) (x44 (= x101 x139)) (x133 (= x139 x78)) (x69 (= x31 x152)) (x62 (= x23 x12)) (x113 (= x139 x156)) (x106 (= x139 x14)) (x72 (= x152 x19)) (x55 (= x5 x158)) (x136 (= x156 x73)) (x89 (= x29 x23)) (x118 (= x23 x150)) (x39 (= x81 x158)) (x96 (= x5 x152)) (x130 (= x158 x101)) (x10 (= x153 x152)) (x107 (= x139 x12)) (x91 (= x23 x35)) (x21 (= x4 x139)) (x34 (= x152 x156)) (x51 (= x5 x139)) (x37 (= x132 x152)) (x124 (= x150 x158)) (x47 (= x138 x152)) (x64 (= x152 x131)) (x148 (= x139 x19)) (x70 (= x73 x132)) (x144 (= x122 x139)) (x56 (= x132 x158)) (x52 (= x14 x158)) (x159 (= x23 x75)) (x24 (= x31 x73)) (x57 (= x139 x145)) (x90 (= x29 x158)) (x50 (= x111 x158)) (x142 (= x152 x4)) (x8 (= x101 x73)) (x103 (= x73 x1)) (x102 (= x73 x93)) (x76 (= x61 x158)) (x141 (= x139 x29)) (x53 (= x150 x139)) (x87 (= x152 x17)) (x100 (= x78 x158)) (x115 (= x152 x75)) (x109 (= x132 x139)) (x42 (= x139 x138)) (x22 (= x152 x78)) (x121 (= x152 x122)) (x65 (= x138 x23)) (x77 (= x73 x14)) (x104 (= x152 x101)) (x33 (= x4 x158)) (x117 (= x4 x73)) (x80 (= x78 x23)) (x92 (= x17 x139)) (x67 (= x81 x23)) (x134 (= x73 x122)) (x36 (= x1 x158)) (x128 (= x93 x152)) (x95 (= x158 x131)) (x85 (= x23 x17)) (x125 (= x23 x4)) (x41 (= x139 x153)) (x66 (= x31 x158)) (x108 (= x139 x81)) (x71 (= x139 x1)) (x54 (= x153 x73)) (x123 (= x153 x158)) (x151 (= x145 x152)) (x83 (= x12 x158)) (x48 (= x156 x158)) (x6 (= x23 x14)) (x20 (= x12 x73)) (x60 (= x139 x75)) (x15 (= x61 x139)) (x129 (= x111 x139)) (x120 (= x19 x73)) (x157 (= x93 x139)) (x97 (= x61 x152)) (x94 (= x73 x61)) (x58 (= x81 x152)) (x135 (= x35 x139)) (x99 (= x19 x23)) (x40 (= x1 x152)) (x45 (= x131 x23)) (x27 (= x158 x75)) (x7 (= x35 x158)) (x30 (= x152 x29)) (x11 (= x150 x73)) (x49 (= x73 x29)) (x16 (= x152 x150)) (x86 (= x122 x23)) (x26 (= x101 x23)) (x28 (= x93 x23)) (x154 (= x152 x35)) (x82 (= x145 x158)) (x149 (= x152 x14)) (x13 (= x156 x23)) (x32 (= x158 x138)) (x84 (= x23 x111)) (x38 (= x23 x153)) (x46 (= x73 x145)) (x3 (= x61 x23)) (x119 (= x73 x17)) (x114 (= x12 x152)) (x143 (= x23 x132)) (x18 (= x31 x23)) (x155 (= x73 x75)) (x112 (= x158 x93)) (x146 (= x158 x122)) (x9 (= x158 x17)) (x127 (= x139 x31)) (x59 (= x73 x5)) (x105 (= x139 x131)) (x74 (= x1 x23))) (and (and (and (or (or (or (or (or (and (not x88) x16) (and (not x24) x64)) (and (not x59) x151)) (and (not x134) x137)) (and (not x119) x40)) (or (or (or (and x97 (not x86)) (or (and x22 (not x126)) (or (and (not x18) x104) (and (not x91) x30)))) (and (not x85) x142)) (or (or (or (or (and (not x146) x114) (or (and x115 (not x55)) (or (and x47 (not x66)) (and (not x7) x149)))) (and x37 (not x9))) (or (and x34 (not x92)) (or (and (not x144) x10) (or (and (not x51) x128) (or (and x72 (not x135)) (and (not x127) x58)))))) (or (or (and x121 (not x121)) (or (or (and x69 (not x69)) (and (not x154) x154)) (and x96 (not x96)))) (and x87 (not x87)))))) (and (or (or (or (or (and (not x38) x15) (or (and x133 (not x28)) (or (and (not x67) x44) (and x141 (not x99))))) (and (not x13) x21)) (or (or (or (or (and (not x123) x107) (or (and x60 (not x112)) (or (and (not x39) x42) (and x106 (not x63))))) (and (not x48) x109)) (or (and (not x113) x113) (or (and (not x41) x41) (or (or (and (not x148) x148) (and x108 (not x108))) (and x157 (not x157)))))) (or (and (not x34) x92) (or (and x144 (not x10)) (or (or (and (not x58) x127) (and x135 (not x72))) (and (not x128) x51)))))) (or (or (or (and x57 (not x102)) (or (and x53 (not x120)) (and x105 (not x25)))) (and (not x54) x129)) (and (not x136) x71))) (or (or (or (or (and (not x155) x82) (or (and (not x77) x124) (and (not x43) x95))) (and x50 (not x20))) (and x36 (not x70))) (or (or (or (or (and (not x114) x146) (or (and x55 (not x115)) (or (and (not x149) x7) (and (not x47) x66)))) (and x9 (not x37))) (or (or (or (or (and x112 (not x60)) (or (and (not x42) x39) (and x63 (not x106)))) (and (not x107) x123)) (and x48 (not x109))) (or (or (and (not x83) x83) (or (or (and (not x52) x52) (and (not x32) x32)) (and (not x27) x27))) (and x56 (not x56))))) (or (or (or (or (and (not x6) x90) (and x130 (not x65))) (and x100 (not x159))) (and x76 (not x62))) (and x33 (not x143))))))) (or (or (and (not x117) x74) (or (or (or (and (not x49) x118) (and x45 (not x8))) (and x110 (not x2))) (and (not x94) x84))) (or (or (or (or (and x86 (not x97)) (or (and x126 (not x22)) (or (and x18 (not x104)) (and (not x30) x91)))) (and (not x142) x85)) (or (or (or (and (not x15) x38) (or (or (and (not x44) x67) (and (not x141) x99)) (and x28 (not x133)))) (and x13 (not x21))) (or (or (or (or (and x6 (not x90)) (and x65 (not x130))) (and (not x100) x159)) (and (not x76) x62)) (and x143 (not x33))))) (or (or (and (not x3) x3) (or (or (and (not x89) x89) (and (not x26) x26)) (and (not x80) x80))) (and x125 (not x125)))))) (or (or (or (or (and x119 (not x40)) (or (or (or (and x24 (not x64)) (and (not x16) x88)) (and (not x151) x59)) (and (not x137) x134))) (or (or (and (not x36) x70) (or (and x20 (not x50)) (or (and x155 (not x82)) (or (and (not x95) x43) (and x77 (not x124)))))) (or (or (and x54 (not x129)) (or (or (and (not x53) x120) (and x25 (not x105))) (and x102 (not x57)))) (and (not x71) x136)))) (or (or (or (and x2 (not x110)) (or (and (not x118) x49) (and x8 (not x45)))) (and (not x84) x94)) (and (not x74) x117))) (or (and x103 (not x103)) (or (or (and x46 (not x46)) (or (and x11 (not x11)) (and x79 (not x79)))) (and x68 (not x68)))))))))
(assert (and (and (and (and (or (or (= (x98 (x98 x23 x158) x158) x23) (or (= (x98 (x98 x152 x158) x158) x152) (or (= x158 (x98 (x98 x158 x158) x158)) (= (x98 (x98 x139 x158) x158) x139)))) (= x73 (x98 (x98 x73 x158) x158))) (or (or (or (= x152 (x98 (x98 x152 x139) x139)) (or (= (x98 (x98 x139 x139) x139) x139) (= x158 (x98 (x98 x158 x139) x139)))) (= (x98 (x98 x23 x139) x139) x23)) (= (x98 (x98 x73 x139) x139) x73))) (or (or (= x23 (x98 (x98 x23 x152) x152)) (or (= (x98 (x98 x152 x152) x152) x152) (or (= x139 (x98 (x98 x139 x152) x152)) (= x158 (x98 (x98 x158 x152) x152))))) (= (x98 (x98 x73 x152) x152) x73))) (or (= (x98 (x98 x73 x23) x23) x73) (or (or (= (x98 (x98 x152 x23) x23) x152) (or (= (x98 (x98 x139 x23) x23) x139) (= x158 (x98 (x98 x158 x23) x23)))) (= x23 (x98 (x98 x23 x23) x23))))) (or (or (or (= (x98 (x98 x152 x73) x73) x152) (or (= x139 (x98 (x98 x139 x73) x73)) (= x158 (x98 (x98 x158 x73) x73)))) (= x23 (x98 (x98 x23 x73) x73))) (= (x98 (x98 x73 x73) x73) x73))))
(assert (let ((x63 (x98 x152 x139)) (x123 (x98 x23 x152)) (x75 (x98 x139 x152)) (x107 (x98 x23 x139)) (x48 (x98 x23 x73)) (x56 (x98 x158 x73)) (x132 (x98 x139 x73)) (x42 (x98 x152 x152)) (x19 (x98 x73 x158)) (x106 (x98 x152 x158)) (x83 (x98 x158 x23)) (x39 (x98 x152 x23)) (x109 (x98 x23 x23)) (x148 (x98 x73 x139)) (x112 (x98 x23 x158)) (x108 (x98 x73 x23)) (x60 (x98 x152 x73)) (x52 (x98 x158 x158)) (x14 (x98 x139 x158)) (x12 (x98 x139 x23)) (x81 (x98 x73 x152)) (x27 (x98 x158 x152)) (x138 (x98 x139 x139)) (x32 (x98 x158 x139)) (x93 (x98 x73 x73))) (and (and (and (and (and (and (and (and (or (or (or (= x52 x152) (or (= x52 x139) (= x52 x158))) (= x23 x52)) (= x52 x73)) (or (= x32 x73) (or (= x23 x32) (or (= x32 x152) (or (= x32 x158) (= x139 x32)))))) (or (or (or (= x27 x152) (or (= x27 x139) (= x158 x27))) (= x23 x27)) (= x73 x27))) (or (or (or (= x152 x83) (or (= x83 x158) (= x83 x139))) (= x83 x23)) (= x83 x73))) (or (= x56 x73) (or (or (= x152 x56) (or (= x139 x56) (= x158 x56))) (= x56 x23)))) (and (or (= x132 x73) (or (= x23 x132) (or (or (= x132 x139) (= x132 x158)) (= x152 x132)))) (and (and (or (or (= x23 x75) (or (= x152 x75) (or (= x75 x139) (= x158 x75)))) (= x73 x75)) (and (or (= x73 x138) (or (= x23 x138) (or (= x152 x138) (or (= x138 x158) (= x138 x139))))) (or (= x14 x73) (or (= x14 x23) (or (= x14 x152) (or (= x14 x158) (= x139 x14))))))) (or (or (= x23 x12) (or (= x152 x12) (or (= x139 x12) (= x158 x12)))) (= x12 x73))))) (and (or (or (or (= x152 x60) (or (= x158 x60) (= x60 x139))) (= x60 x23)) (= x73 x60)) (and (or (= x39 x73) (or (= x23 x39) (or (= x39 x152) (or (= x139 x39) (= x158 x39))))) (and (or (or (= x23 x42) (or (or (= x42 x139) (= x158 x42)) (= x42 x152))) (= x42 x73)) (and (or (or (or (or (= x63 x139) (= x63 x158)) (= x152 x63)) (= x63 x23)) (= x73 x63)) (or (= x73 x106) (or (or (= x106 x152) (or (= x139 x106) (= x106 x158))) (= x23 x106)))))))) (and (and (and (and (or (or (= x23 x107) (or (= x152 x107) (or (= x107 x158) (= x139 x107)))) (= x107 x73)) (or (or (= x23 x112) (or (= x112 x152) (or (= x112 x158) (= x112 x139)))) (= x73 x112))) (or (= x123 x73) (or (= x123 x23) (or (or (= x123 x139) (= x158 x123)) (= x152 x123))))) (or (= x109 x73) (or (or (or (= x109 x139) (= x109 x158)) (= x152 x109)) (= x109 x23)))) (or (= x48 x73) (or (or (= x152 x48) (or (= x48 x158) (= x139 x48))) (= x23 x48))))) (and (and (and (or (or (or (= x152 x81) (or (= x139 x81) (= x158 x81))) (= x23 x81)) (= x73 x81)) (and (or (or (= x23 x19) (or (= x19 x152) (or (= x19 x158) (= x19 x139)))) (= x73 x19)) (or (or (= x23 x148) (or (or (= x148 x158) (= x139 x148)) (= x152 x148))) (= x73 x148)))) (or (= x108 x73) (or (= x23 x108) (or (= x108 x152) (or (= x139 x108) (= x158 x108)))))) (or (= x93 x73) (or (or (or (= x139 x93) (= x93 x158)) (= x93 x152)) (= x23 x93)))))))
(assert (or (and (and (not (= (x98 (x98 x23 x73) x23) x73)) (and (and (not (= (x98 (x98 x158 x73) x158) x73)) (not (= x73 (x98 (x98 x139 x73) x139)))) (not (= x73 (x98 (x98 x152 x73) x152))))) (not (= (x98 (x98 x73 x73) x73) x73))) (or (or (and (and (not (= x152 (x98 (x98 x23 x152) x23))) (and (not (= (x98 (x98 x152 x152) x152) x152)) (and (not (= x152 (x98 (x98 x139 x152) x139))) (not (= (x98 (x98 x158 x152) x158) x152))))) (not (= x152 (x98 (x98 x73 x152) x73)))) (or (and (and (and (and (not (= x139 (x98 (x98 x158 x139) x158))) (not (= x139 (x98 (x98 x139 x139) x139)))) (not (= x139 (x98 (x98 x152 x139) x152)))) (not (= (x98 (x98 x23 x139) x23) x139))) (not (= (x98 (x98 x73 x139) x73) x139))) (and (and (and (not (= (x98 (x98 x152 x158) x152) x158)) (and (not (= x158 (x98 (x98 x158 x158) x158))) (not (= x158 (x98 (x98 x139 x158) x139))))) (not (= (x98 (x98 x23 x158) x23) x158))) (not (= (x98 (x98 x73 x158) x73) x158))))) (and (not (= x23 (x98 (x98 x73 x23) x73))) (and (not (= x23 (x98 (x98 x23 x23) x23))) (and (not (= (x98 (x98 x152 x23) x152) x23)) (and (not (= (x98 (x98 x158 x23) x158) x23)) (not (= x23 (x98 (x98 x139 x23) x139))))))))))
(assert (or (and (not (= x73 (x98 x73 x73))) (and (and (not (= (x98 x152 x73) x152)) (and (not (= (x98 x158 x73) x158)) (not (= (x98 x139 x73) x139)))) (not (= x23 (x98 x23 x73))))) (or (and (not (= (x98 x73 x23) x73)) (and (and (and (not (= (x98 x139 x23) x139)) (not (= x158 (x98 x158 x23)))) (not (= x152 (x98 x152 x23)))) (not (= (x98 x23 x23) x23)))) (or (and (not (= (x98 x73 x152) x73)) (and (and (not (= (x98 x152 x152) x152)) (and (not (= x139 (x98 x139 x152))) (not (= x158 (x98 x158 x152))))) (not (= (x98 x23 x152) x23)))) (or (and (and (and (not (= x152 (x98 x152 x139))) (and (not (= x139 (x98 x139 x139))) (not (= (x98 x158 x139) x158)))) (not (= (x98 x23 x139) x23))) (not (= x73 (x98 x73 x139)))) (and (and (and (and (not (= x139 (x98 x139 x158))) (not (= x158 (x98 x158 x158)))) (not (= (x98 x152 x158) x152))) (not (= (x98 x23 x158) x23))) (not (= (x98 x73 x158) x73))))))))
(assert (let ((x52 (x98 x158 x158)) (x32 (x98 x139 x139)) (x83 (x98 x23 x23)) (x27 (x98 x152 x152)) (x56 (x98 x73 x73))) (or (not (= (x98 x56 x56) x56)) (or (or (not (= (x98 x27 x27) x27)) (or (not (= x52 (x98 x52 x52))) (not (= (x98 x32 x32) x32)))) (not (= x83 (x98 x83 x83)))))))
(assert (or (or (or (and (not (= x152 (x98 x73 (x98 x152 x73)))) (and (and (not (= x152 (x98 x152 (x98 x152 x152)))) (and (not (= x152 (x98 x158 (x98 x152 x158)))) (not (= x152 (x98 x139 (x98 x152 x139)))))) (not (= (x98 x23 (x98 x152 x23)) x152)))) (or (and (and (not (= x158 (x98 x23 (x98 x158 x23)))) (and (not (= x158 (x98 x152 (x98 x158 x152)))) (and (not (= x158 (x98 x139 (x98 x158 x139)))) (not (= x158 (x98 x158 (x98 x158 x158))))))) (not (= (x98 x73 (x98 x158 x73)) x158))) (and (not (= (x98 x73 (x98 x139 x73)) x139)) (and (not (= x139 (x98 x23 (x98 x139 x23)))) (and (not (= (x98 x152 (x98 x139 x152)) x139)) (and (not (= x139 (x98 x158 (x98 x139 x158)))) (not (= (x98 x139 (x98 x139 x139)) x139)))))))) (and (not (= (x98 x73 (x98 x23 x73)) x23)) (and (and (not (= x23 (x98 x152 (x98 x23 x152)))) (and (not (= x23 (x98 x139 (x98 x23 x139)))) (not (= x23 (x98 x158 (x98 x23 x158)))))) (not (= x23 (x98 x23 (x98 x23 x23))))))) (and (and (not (= (x98 x23 (x98 x73 x23)) x73)) (and (not (= (x98 x152 (x98 x73 x152)) x73)) (and (not (= x73 (x98 x139 (x98 x73 x139)))) (not (= x73 (x98 x158 (x98 x73 x158))))))) (not (= x73 (x98 x73 (x98 x73 x73)))))))
(check-sat)
(exit)
